T = 150;
V = 20;
Q = 15;
L = 11;
C = 4;
P = 20;
time = [|  0, 30, 13, 29, 13, 24, 13,  2, 27, 29, 29,  2, 29, 30, 29, 30, 13, 30, 24, 13, 18, 24,  2, 24, 24, 13,  2, 18, 18, 24,  0, 24, 13, 29, 24,  0, 30, 27, 29, 18, 16, 16, 16, 16, 16, 16, 16, 16, 16, 16, 16, 16, 16, 16, 16, 16, 16, 16, 16, 16, 16, 16, 16, 16, 16, 16, 16, 16, 16, 16, 16, 16, 16, 16, 16, 16, 16, 16, 16, 16,
        | 30,  0, 23, 25, 23, 40, 23, 32, 11, 35, 11, 32, 35,  0, 35,  0, 23,  0,  8, 23, 12,  8, 32,  8,  8, 23, 32, 12, 12, 40, 30,  8, 23, 11,  8, 30,  0, 11, 25, 12, 22, 22, 22, 22, 22, 22, 22, 22, 22, 22, 22, 22, 22, 22, 22, 22, 22, 22, 22, 22, 22, 22, 22, 22, 22, 22, 22, 22, 22, 22, 22, 22, 22, 22, 22, 22, 22, 22, 22, 22,
        | 13, 23,  0, 17,  0, 20,  0, 14, 16, 19, 18, 14, 19, 23, 19, 23,  0, 23, 19,  0, 12, 19, 14, 19, 19,  0, 14, 12, 12, 20, 13, 19,  0, 18, 19, 13, 23, 16, 17, 12,  4,  4,  4,  4,  4,  4,  4,  4,  4,  4,  4,  4,  4,  4,  4,  4,  4,  4,  4,  4,  4,  4,  4,  4,  4,  4,  4,  4,  4,  4,  4,  4,  4,  4,  4,  4,  4,  4,  4,  4,
        | 29, 25, 17,  0, 17, 22, 17, 31, 15, 12, 14, 31, 12, 25, 12, 25, 17, 25, 26, 17, 22, 26, 31, 26, 26, 17, 31, 22, 22, 22, 29, 26, 17, 14, 26, 29, 25, 15,  0, 22, 13, 13, 13, 13, 13, 13, 13, 13, 13, 13, 13, 13, 13, 13, 13, 13, 13, 13, 13, 13, 13, 13, 13, 13, 13, 13, 13, 13, 13, 13, 13, 13, 13, 13, 13, 13, 13, 13, 13, 13,
        | 13, 23,  0, 17,  0, 20,  0, 14, 16, 19, 18, 14, 19, 23, 19, 23,  0, 23, 19,  0, 12, 19, 14, 19, 19,  0, 14, 12, 12, 20, 13, 19,  0, 18, 19, 13, 23, 16, 17, 12,  4,  4,  4,  4,  4,  4,  4,  4,  4,  4,  4,  4,  4,  4,  4,  4,  4,  4,  4,  4,  4,  4,  4,  4,  4,  4,  4,  4,  4,  4,  4,  4,  4,  4,  4,  4,  4,  4,  4,  4,
        | 24, 40, 20, 22, 20,  0, 20, 24, 32, 12, 32, 24, 12, 40, 12, 40, 20, 40, 38, 20, 31, 38, 24, 38, 38, 20, 24, 31, 31,  0, 24, 38, 20, 32, 38, 24, 40, 32, 22, 31, 19, 19, 19, 19, 19, 19, 19, 19, 19, 19, 19, 19, 19, 19, 19, 19, 19, 19, 19, 19, 19, 19, 19, 19, 19, 19, 19, 19, 19, 19, 19, 19, 19, 19, 19, 19, 19, 19, 19, 19,
        | 13, 23,  0, 17,  0, 20,  0, 14, 16, 19, 18, 14, 19, 23, 19, 23,  0, 23, 19,  0, 12, 19, 14, 19, 19,  0, 14, 12, 12, 20, 13, 19,  0, 18, 19, 13, 23, 16, 17, 12,  4,  4,  4,  4,  4,  4,  4,  4,  4,  4,  4,  4,  4,  4,  4,  4,  4,  4,  4,  4,  4,  4,  4,  4,  4,  4,  4,  4,  4,  4,  4,  4,  4,  4,  4,  4,  4,  4,  4,  4,
        |  2, 32, 14, 31, 14, 24, 14,  0, 29, 30, 31,  0, 30, 32, 30, 32, 14, 32, 26, 14, 20, 26,  0, 26, 26, 14,  0, 20, 20, 24,  2, 26, 14, 31, 26,  2, 32, 29, 31, 20, 18, 18, 18, 18, 18, 18, 18, 18, 18, 18, 18, 18, 18, 18, 18, 18, 18, 18, 18, 18, 18, 18, 18, 18, 18, 18, 18, 18, 18, 18, 18, 18, 18, 18, 18, 18, 18, 18, 18, 18,
        | 27, 11, 16, 15, 16, 32, 16, 29,  0, 25,  3, 29, 25, 11, 25, 11, 16, 11, 13, 16, 11, 13, 29, 13, 13, 16, 29, 11, 11, 32, 27, 13, 16,  3, 13, 27, 11,  0, 15, 11, 14, 14, 14, 14, 14, 14, 14, 14, 14, 14, 14, 14, 14, 14, 14, 14, 14, 14, 14, 14, 14, 14, 14, 14, 14, 14, 14, 14, 14, 14, 14, 14, 14, 14, 14, 14, 14, 14, 14, 14,
        | 29, 35, 19, 12, 19, 12, 19, 30, 25,  0, 25, 30,  0, 35,  0, 35, 19, 35, 34, 19, 29, 34, 30, 34, 34, 19, 30, 29, 29, 12, 29, 34, 19, 25, 34, 29, 35, 25, 12, 29, 17, 17, 17, 17, 17, 17, 17, 17, 17, 17, 17, 17, 17, 17, 17, 17, 17, 17, 17, 17, 17, 17, 17, 17, 17, 17, 17, 17, 17, 17, 17, 17, 17, 17, 17, 17, 17, 17, 17, 17,
        | 29, 11, 18, 14, 18, 32, 18, 31,  3, 25,  0, 31, 25, 11, 25, 11, 18, 11, 14, 18, 14, 14, 31, 14, 14, 18, 31, 14, 14, 32, 29, 14, 18,  0, 14, 29, 11,  3, 14, 14, 15, 15, 15, 15, 15, 15, 15, 15, 15, 15, 15, 15, 15, 15, 15, 15, 15, 15, 15, 15, 15, 15, 15, 15, 15, 15, 15, 15, 15, 15, 15, 15, 15, 15, 15, 15, 15, 15, 15, 15,
        |  2, 32, 14, 31, 14, 24, 14,  0, 29, 30, 31,  0, 30, 32, 30, 32, 14, 32, 26, 14, 20, 26,  0, 26, 26, 14,  0, 20, 20, 24,  2, 26, 14, 31, 26,  2, 32, 29, 31, 20, 18, 18, 18, 18, 18, 18, 18, 18, 18, 18, 18, 18, 18, 18, 18, 18, 18, 18, 18, 18, 18, 18, 18, 18, 18, 18, 18, 18, 18, 18, 18, 18, 18, 18, 18, 18, 18, 18, 18, 18,
        | 29, 35, 19, 12, 19, 12, 19, 30, 25,  0, 25, 30,  0, 35,  0, 35, 19, 35, 34, 19, 29, 34, 30, 34, 34, 19, 30, 29, 29, 12, 29, 34, 19, 25, 34, 29, 35, 25, 12, 29, 17, 17, 17, 17, 17, 17, 17, 17, 17, 17, 17, 17, 17, 17, 17, 17, 17, 17, 17, 17, 17, 17, 17, 17, 17, 17, 17, 17, 17, 17, 17, 17, 17, 17, 17, 17, 17, 17, 17, 17,
        | 30,  0, 23, 25, 23, 40, 23, 32, 11, 35, 11, 32, 35,  0, 35,  0, 23,  0,  8, 23, 12,  8, 32,  8,  8, 23, 32, 12, 12, 40, 30,  8, 23, 11,  8, 30,  0, 11, 25, 12, 22, 22, 22, 22, 22, 22, 22, 22, 22, 22, 22, 22, 22, 22, 22, 22, 22, 22, 22, 22, 22, 22, 22, 22, 22, 22, 22, 22, 22, 22, 22, 22, 22, 22, 22, 22, 22, 22, 22, 22,
        | 29, 35, 19, 12, 19, 12, 19, 30, 25,  0, 25, 30,  0, 35,  0, 35, 19, 35, 34, 19, 29, 34, 30, 34, 34, 19, 30, 29, 29, 12, 29, 34, 19, 25, 34, 29, 35, 25, 12, 29, 17, 17, 17, 17, 17, 17, 17, 17, 17, 17, 17, 17, 17, 17, 17, 17, 17, 17, 17, 17, 17, 17, 17, 17, 17, 17, 17, 17, 17, 17, 17, 17, 17, 17, 17, 17, 17, 17, 17, 17,
        | 30,  0, 23, 25, 23, 40, 23, 32, 11, 35, 11, 32, 35,  0, 35,  0, 23,  0,  8, 23, 12,  8, 32,  8,  8, 23, 32, 12, 12, 40, 30,  8, 23, 11,  8, 30,  0, 11, 25, 12, 22, 22, 22, 22, 22, 22, 22, 22, 22, 22, 22, 22, 22, 22, 22, 22, 22, 22, 22, 22, 22, 22, 22, 22, 22, 22, 22, 22, 22, 22, 22, 22, 22, 22, 22, 22, 22, 22, 22, 22,
        | 13, 23,  0, 17,  0, 20,  0, 14, 16, 19, 18, 14, 19, 23, 19, 23,  0, 23, 19,  0, 12, 19, 14, 19, 19,  0, 14, 12, 12, 20, 13, 19,  0, 18, 19, 13, 23, 16, 17, 12,  4,  4,  4,  4,  4,  4,  4,  4,  4,  4,  4,  4,  4,  4,  4,  4,  4,  4,  4,  4,  4,  4,  4,  4,  4,  4,  4,  4,  4,  4,  4,  4,  4,  4,  4,  4,  4,  4,  4,  4,
        | 30,  0, 23, 25, 23, 40, 23, 32, 11, 35, 11, 32, 35,  0, 35,  0, 23,  0,  8, 23, 12,  8, 32,  8,  8, 23, 32, 12, 12, 40, 30,  8, 23, 11,  8, 30,  0, 11, 25, 12, 22, 22, 22, 22, 22, 22, 22, 22, 22, 22, 22, 22, 22, 22, 22, 22, 22, 22, 22, 22, 22, 22, 22, 22, 22, 22, 22, 22, 22, 22, 22, 22, 22, 22, 22, 22, 22, 22, 22, 22,
        | 24,  8, 19, 26, 19, 38, 19, 26, 13, 34, 14, 26, 34,  8, 34,  8, 19,  8,  0, 19,  7,  0, 26,  0,  0, 19, 26,  7,  7, 38, 24,  0, 19, 14,  0, 24,  8, 13, 26,  7, 19, 19, 19, 19, 19, 19, 19, 19, 19, 19, 19, 19, 19, 19, 19, 19, 19, 19, 19, 19, 19, 19, 19, 19, 19, 19, 19, 19, 19, 19, 19, 19, 19, 19, 19, 19, 19, 19, 19, 19,
        | 13, 23,  0, 17,  0, 20,  0, 14, 16, 19, 18, 14, 19, 23, 19, 23,  0, 23, 19,  0, 12, 19, 14, 19, 19,  0, 14, 12, 12, 20, 13, 19,  0, 18, 19, 13, 23, 16, 17, 12,  4,  4,  4,  4,  4,  4,  4,  4,  4,  4,  4,  4,  4,  4,  4,  4,  4,  4,  4,  4,  4,  4,  4,  4,  4,  4,  4,  4,  4,  4,  4,  4,  4,  4,  4,  4,  4,  4,  4,  4,
        | 18, 12, 12, 22, 12, 31, 12, 20, 11, 29, 14, 20, 29, 12, 29, 12, 12, 12,  7, 12,  0,  7, 20,  7,  7, 12, 20,  0,  0, 31, 18,  7, 12, 14,  7, 18, 12, 11, 22,  0, 13, 13, 13, 13, 13, 13, 13, 13, 13, 13, 13, 13, 13, 13, 13, 13, 13, 13, 13, 13, 13, 13, 13, 13, 13, 13, 13, 13, 13, 13, 13, 13, 13, 13, 13, 13, 13, 13, 13, 13,
        | 24,  8, 19, 26, 19, 38, 19, 26, 13, 34, 14, 26, 34,  8, 34,  8, 19,  8,  0, 19,  7,  0, 26,  0,  0, 19, 26,  7,  7, 38, 24,  0, 19, 14,  0, 24,  8, 13, 26,  7, 19, 19, 19, 19, 19, 19, 19, 19, 19, 19, 19, 19, 19, 19, 19, 19, 19, 19, 19, 19, 19, 19, 19, 19, 19, 19, 19, 19, 19, 19, 19, 19, 19, 19, 19, 19, 19, 19, 19, 19,
        |  2, 32, 14, 31, 14, 24, 14,  0, 29, 30, 31,  0, 30, 32, 30, 32, 14, 32, 26, 14, 20, 26,  0, 26, 26, 14,  0, 20, 20, 24,  2, 26, 14, 31, 26,  2, 32, 29, 31, 20, 18, 18, 18, 18, 18, 18, 18, 18, 18, 18, 18, 18, 18, 18, 18, 18, 18, 18, 18, 18, 18, 18, 18, 18, 18, 18, 18, 18, 18, 18, 18, 18, 18, 18, 18, 18, 18, 18, 18, 18,
        | 24,  8, 19, 26, 19, 38, 19, 26, 13, 34, 14, 26, 34,  8, 34,  8, 19,  8,  0, 19,  7,  0, 26,  0,  0, 19, 26,  7,  7, 38, 24,  0, 19, 14,  0, 24,  8, 13, 26,  7, 19, 19, 19, 19, 19, 19, 19, 19, 19, 19, 19, 19, 19, 19, 19, 19, 19, 19, 19, 19, 19, 19, 19, 19, 19, 19, 19, 19, 19, 19, 19, 19, 19, 19, 19, 19, 19, 19, 19, 19,
        | 24,  8, 19, 26, 19, 38, 19, 26, 13, 34, 14, 26, 34,  8, 34,  8, 19,  8,  0, 19,  7,  0, 26,  0,  0, 19, 26,  7,  7, 38, 24,  0, 19, 14,  0, 24,  8, 13, 26,  7, 19, 19, 19, 19, 19, 19, 19, 19, 19, 19, 19, 19, 19, 19, 19, 19, 19, 19, 19, 19, 19, 19, 19, 19, 19, 19, 19, 19, 19, 19, 19, 19, 19, 19, 19, 19, 19, 19, 19, 19,
        | 13, 23,  0, 17,  0, 20,  0, 14, 16, 19, 18, 14, 19, 23, 19, 23,  0, 23, 19,  0, 12, 19, 14, 19, 19,  0, 14, 12, 12, 20, 13, 19,  0, 18, 19, 13, 23, 16, 17, 12,  4,  4,  4,  4,  4,  4,  4,  4,  4,  4,  4,  4,  4,  4,  4,  4,  4,  4,  4,  4,  4,  4,  4,  4,  4,  4,  4,  4,  4,  4,  4,  4,  4,  4,  4,  4,  4,  4,  4,  4,
        |  2, 32, 14, 31, 14, 24, 14,  0, 29, 30, 31,  0, 30, 32, 30, 32, 14, 32, 26, 14, 20, 26,  0, 26, 26, 14,  0, 20, 20, 24,  2, 26, 14, 31, 26,  2, 32, 29, 31, 20, 18, 18, 18, 18, 18, 18, 18, 18, 18, 18, 18, 18, 18, 18, 18, 18, 18, 18, 18, 18, 18, 18, 18, 18, 18, 18, 18, 18, 18, 18, 18, 18, 18, 18, 18, 18, 18, 18, 18, 18,
        | 18, 12, 12, 22, 12, 31, 12, 20, 11, 29, 14, 20, 29, 12, 29, 12, 12, 12,  7, 12,  0,  7, 20,  7,  7, 12, 20,  0,  0, 31, 18,  7, 12, 14,  7, 18, 12, 11, 22,  0, 13, 13, 13, 13, 13, 13, 13, 13, 13, 13, 13, 13, 13, 13, 13, 13, 13, 13, 13, 13, 13, 13, 13, 13, 13, 13, 13, 13, 13, 13, 13, 13, 13, 13, 13, 13, 13, 13, 13, 13,
        | 18, 12, 12, 22, 12, 31, 12, 20, 11, 29, 14, 20, 29, 12, 29, 12, 12, 12,  7, 12,  0,  7, 20,  7,  7, 12, 20,  0,  0, 31, 18,  7, 12, 14,  7, 18, 12, 11, 22,  0, 13, 13, 13, 13, 13, 13, 13, 13, 13, 13, 13, 13, 13, 13, 13, 13, 13, 13, 13, 13, 13, 13, 13, 13, 13, 13, 13, 13, 13, 13, 13, 13, 13, 13, 13, 13, 13, 13, 13, 13,
        | 24, 40, 20, 22, 20,  0, 20, 24, 32, 12, 32, 24, 12, 40, 12, 40, 20, 40, 38, 20, 31, 38, 24, 38, 38, 20, 24, 31, 31,  0, 24, 38, 20, 32, 38, 24, 40, 32, 22, 31, 19, 19, 19, 19, 19, 19, 19, 19, 19, 19, 19, 19, 19, 19, 19, 19, 19, 19, 19, 19, 19, 19, 19, 19, 19, 19, 19, 19, 19, 19, 19, 19, 19, 19, 19, 19, 19, 19, 19, 19,
        |  0, 30, 13, 29, 13, 24, 13,  2, 27, 29, 29,  2, 29, 30, 29, 30, 13, 30, 24, 13, 18, 24,  2, 24, 24, 13,  2, 18, 18, 24,  0, 24, 13, 29, 24,  0, 30, 27, 29, 18, 16, 16, 16, 16, 16, 16, 16, 16, 16, 16, 16, 16, 16, 16, 16, 16, 16, 16, 16, 16, 16, 16, 16, 16, 16, 16, 16, 16, 16, 16, 16, 16, 16, 16, 16, 16, 16, 16, 16, 16,
        | 24,  8, 19, 26, 19, 38, 19, 26, 13, 34, 14, 26, 34,  8, 34,  8, 19,  8,  0, 19,  7,  0, 26,  0,  0, 19, 26,  7,  7, 38, 24,  0, 19, 14,  0, 24,  8, 13, 26,  7, 19, 19, 19, 19, 19, 19, 19, 19, 19, 19, 19, 19, 19, 19, 19, 19, 19, 19, 19, 19, 19, 19, 19, 19, 19, 19, 19, 19, 19, 19, 19, 19, 19, 19, 19, 19, 19, 19, 19, 19,
        | 13, 23,  0, 17,  0, 20,  0, 14, 16, 19, 18, 14, 19, 23, 19, 23,  0, 23, 19,  0, 12, 19, 14, 19, 19,  0, 14, 12, 12, 20, 13, 19,  0, 18, 19, 13, 23, 16, 17, 12,  4,  4,  4,  4,  4,  4,  4,  4,  4,  4,  4,  4,  4,  4,  4,  4,  4,  4,  4,  4,  4,  4,  4,  4,  4,  4,  4,  4,  4,  4,  4,  4,  4,  4,  4,  4,  4,  4,  4,  4,
        | 29, 11, 18, 14, 18, 32, 18, 31,  3, 25,  0, 31, 25, 11, 25, 11, 18, 11, 14, 18, 14, 14, 31, 14, 14, 18, 31, 14, 14, 32, 29, 14, 18,  0, 14, 29, 11,  3, 14, 14, 15, 15, 15, 15, 15, 15, 15, 15, 15, 15, 15, 15, 15, 15, 15, 15, 15, 15, 15, 15, 15, 15, 15, 15, 15, 15, 15, 15, 15, 15, 15, 15, 15, 15, 15, 15, 15, 15, 15, 15,
        | 24,  8, 19, 26, 19, 38, 19, 26, 13, 34, 14, 26, 34,  8, 34,  8, 19,  8,  0, 19,  7,  0, 26,  0,  0, 19, 26,  7,  7, 38, 24,  0, 19, 14,  0, 24,  8, 13, 26,  7, 19, 19, 19, 19, 19, 19, 19, 19, 19, 19, 19, 19, 19, 19, 19, 19, 19, 19, 19, 19, 19, 19, 19, 19, 19, 19, 19, 19, 19, 19, 19, 19, 19, 19, 19, 19, 19, 19, 19, 19,
        |  0, 30, 13, 29, 13, 24, 13,  2, 27, 29, 29,  2, 29, 30, 29, 30, 13, 30, 24, 13, 18, 24,  2, 24, 24, 13,  2, 18, 18, 24,  0, 24, 13, 29, 24,  0, 30, 27, 29, 18, 16, 16, 16, 16, 16, 16, 16, 16, 16, 16, 16, 16, 16, 16, 16, 16, 16, 16, 16, 16, 16, 16, 16, 16, 16, 16, 16, 16, 16, 16, 16, 16, 16, 16, 16, 16, 16, 16, 16, 16,
        | 30,  0, 23, 25, 23, 40, 23, 32, 11, 35, 11, 32, 35,  0, 35,  0, 23,  0,  8, 23, 12,  8, 32,  8,  8, 23, 32, 12, 12, 40, 30,  8, 23, 11,  8, 30,  0, 11, 25, 12, 22, 22, 22, 22, 22, 22, 22, 22, 22, 22, 22, 22, 22, 22, 22, 22, 22, 22, 22, 22, 22, 22, 22, 22, 22, 22, 22, 22, 22, 22, 22, 22, 22, 22, 22, 22, 22, 22, 22, 22,
        | 27, 11, 16, 15, 16, 32, 16, 29,  0, 25,  3, 29, 25, 11, 25, 11, 16, 11, 13, 16, 11, 13, 29, 13, 13, 16, 29, 11, 11, 32, 27, 13, 16,  3, 13, 27, 11,  0, 15, 11, 14, 14, 14, 14, 14, 14, 14, 14, 14, 14, 14, 14, 14, 14, 14, 14, 14, 14, 14, 14, 14, 14, 14, 14, 14, 14, 14, 14, 14, 14, 14, 14, 14, 14, 14, 14, 14, 14, 14, 14,
        | 29, 25, 17,  0, 17, 22, 17, 31, 15, 12, 14, 31, 12, 25, 12, 25, 17, 25, 26, 17, 22, 26, 31, 26, 26, 17, 31, 22, 22, 22, 29, 26, 17, 14, 26, 29, 25, 15,  0, 22, 13, 13, 13, 13, 13, 13, 13, 13, 13, 13, 13, 13, 13, 13, 13, 13, 13, 13, 13, 13, 13, 13, 13, 13, 13, 13, 13, 13, 13, 13, 13, 13, 13, 13, 13, 13, 13, 13, 13, 13,
        | 18, 12, 12, 22, 12, 31, 12, 20, 11, 29, 14, 20, 29, 12, 29, 12, 12, 12,  7, 12,  0,  7, 20,  7,  7, 12, 20,  0,  0, 31, 18,  7, 12, 14,  7, 18, 12, 11, 22,  0, 13, 13, 13, 13, 13, 13, 13, 13, 13, 13, 13, 13, 13, 13, 13, 13, 13, 13, 13, 13, 13, 13, 13, 13, 13, 13, 13, 13, 13, 13, 13, 13, 13, 13, 13, 13, 13, 13, 13, 13,
        | 16, 22,  4, 13,  4, 19,  4, 18, 14, 17, 15, 18, 17, 22, 17, 22,  4, 22, 19,  4, 13, 19, 18, 19, 19,  4, 18, 13, 13, 19, 16, 19,  4, 15, 19, 16, 22, 14, 13, 13,  0,  0,  0,  0,  0,  0,  0,  0,  0,  0,  0,  0,  0,  0,  0,  0,  0,  0,  0,  0,  0,  0,  0,  0,  0,  0,  0,  0,  0,  0,  0,  0,  0,  0,  0,  0,  0,  0,  0,  0,
        | 16, 22,  4, 13,  4, 19,  4, 18, 14, 17, 15, 18, 17, 22, 17, 22,  4, 22, 19,  4, 13, 19, 18, 19, 19,  4, 18, 13, 13, 19, 16, 19,  4, 15, 19, 16, 22, 14, 13, 13,  0,  0,  0,  0,  0,  0,  0,  0,  0,  0,  0,  0,  0,  0,  0,  0,  0,  0,  0,  0,  0,  0,  0,  0,  0,  0,  0,  0,  0,  0,  0,  0,  0,  0,  0,  0,  0,  0,  0,  0,
        | 16, 22,  4, 13,  4, 19,  4, 18, 14, 17, 15, 18, 17, 22, 17, 22,  4, 22, 19,  4, 13, 19, 18, 19, 19,  4, 18, 13, 13, 19, 16, 19,  4, 15, 19, 16, 22, 14, 13, 13,  0,  0,  0,  0,  0,  0,  0,  0,  0,  0,  0,  0,  0,  0,  0,  0,  0,  0,  0,  0,  0,  0,  0,  0,  0,  0,  0,  0,  0,  0,  0,  0,  0,  0,  0,  0,  0,  0,  0,  0,
        | 16, 22,  4, 13,  4, 19,  4, 18, 14, 17, 15, 18, 17, 22, 17, 22,  4, 22, 19,  4, 13, 19, 18, 19, 19,  4, 18, 13, 13, 19, 16, 19,  4, 15, 19, 16, 22, 14, 13, 13,  0,  0,  0,  0,  0,  0,  0,  0,  0,  0,  0,  0,  0,  0,  0,  0,  0,  0,  0,  0,  0,  0,  0,  0,  0,  0,  0,  0,  0,  0,  0,  0,  0,  0,  0,  0,  0,  0,  0,  0,
        | 16, 22,  4, 13,  4, 19,  4, 18, 14, 17, 15, 18, 17, 22, 17, 22,  4, 22, 19,  4, 13, 19, 18, 19, 19,  4, 18, 13, 13, 19, 16, 19,  4, 15, 19, 16, 22, 14, 13, 13,  0,  0,  0,  0,  0,  0,  0,  0,  0,  0,  0,  0,  0,  0,  0,  0,  0,  0,  0,  0,  0,  0,  0,  0,  0,  0,  0,  0,  0,  0,  0,  0,  0,  0,  0,  0,  0,  0,  0,  0,
        | 16, 22,  4, 13,  4, 19,  4, 18, 14, 17, 15, 18, 17, 22, 17, 22,  4, 22, 19,  4, 13, 19, 18, 19, 19,  4, 18, 13, 13, 19, 16, 19,  4, 15, 19, 16, 22, 14, 13, 13,  0,  0,  0,  0,  0,  0,  0,  0,  0,  0,  0,  0,  0,  0,  0,  0,  0,  0,  0,  0,  0,  0,  0,  0,  0,  0,  0,  0,  0,  0,  0,  0,  0,  0,  0,  0,  0,  0,  0,  0,
        | 16, 22,  4, 13,  4, 19,  4, 18, 14, 17, 15, 18, 17, 22, 17, 22,  4, 22, 19,  4, 13, 19, 18, 19, 19,  4, 18, 13, 13, 19, 16, 19,  4, 15, 19, 16, 22, 14, 13, 13,  0,  0,  0,  0,  0,  0,  0,  0,  0,  0,  0,  0,  0,  0,  0,  0,  0,  0,  0,  0,  0,  0,  0,  0,  0,  0,  0,  0,  0,  0,  0,  0,  0,  0,  0,  0,  0,  0,  0,  0,
        | 16, 22,  4, 13,  4, 19,  4, 18, 14, 17, 15, 18, 17, 22, 17, 22,  4, 22, 19,  4, 13, 19, 18, 19, 19,  4, 18, 13, 13, 19, 16, 19,  4, 15, 19, 16, 22, 14, 13, 13,  0,  0,  0,  0,  0,  0,  0,  0,  0,  0,  0,  0,  0,  0,  0,  0,  0,  0,  0,  0,  0,  0,  0,  0,  0,  0,  0,  0,  0,  0,  0,  0,  0,  0,  0,  0,  0,  0,  0,  0,
        | 16, 22,  4, 13,  4, 19,  4, 18, 14, 17, 15, 18, 17, 22, 17, 22,  4, 22, 19,  4, 13, 19, 18, 19, 19,  4, 18, 13, 13, 19, 16, 19,  4, 15, 19, 16, 22, 14, 13, 13,  0,  0,  0,  0,  0,  0,  0,  0,  0,  0,  0,  0,  0,  0,  0,  0,  0,  0,  0,  0,  0,  0,  0,  0,  0,  0,  0,  0,  0,  0,  0,  0,  0,  0,  0,  0,  0,  0,  0,  0,
        | 16, 22,  4, 13,  4, 19,  4, 18, 14, 17, 15, 18, 17, 22, 17, 22,  4, 22, 19,  4, 13, 19, 18, 19, 19,  4, 18, 13, 13, 19, 16, 19,  4, 15, 19, 16, 22, 14, 13, 13,  0,  0,  0,  0,  0,  0,  0,  0,  0,  0,  0,  0,  0,  0,  0,  0,  0,  0,  0,  0,  0,  0,  0,  0,  0,  0,  0,  0,  0,  0,  0,  0,  0,  0,  0,  0,  0,  0,  0,  0,
        | 16, 22,  4, 13,  4, 19,  4, 18, 14, 17, 15, 18, 17, 22, 17, 22,  4, 22, 19,  4, 13, 19, 18, 19, 19,  4, 18, 13, 13, 19, 16, 19,  4, 15, 19, 16, 22, 14, 13, 13,  0,  0,  0,  0,  0,  0,  0,  0,  0,  0,  0,  0,  0,  0,  0,  0,  0,  0,  0,  0,  0,  0,  0,  0,  0,  0,  0,  0,  0,  0,  0,  0,  0,  0,  0,  0,  0,  0,  0,  0,
        | 16, 22,  4, 13,  4, 19,  4, 18, 14, 17, 15, 18, 17, 22, 17, 22,  4, 22, 19,  4, 13, 19, 18, 19, 19,  4, 18, 13, 13, 19, 16, 19,  4, 15, 19, 16, 22, 14, 13, 13,  0,  0,  0,  0,  0,  0,  0,  0,  0,  0,  0,  0,  0,  0,  0,  0,  0,  0,  0,  0,  0,  0,  0,  0,  0,  0,  0,  0,  0,  0,  0,  0,  0,  0,  0,  0,  0,  0,  0,  0,
        | 16, 22,  4, 13,  4, 19,  4, 18, 14, 17, 15, 18, 17, 22, 17, 22,  4, 22, 19,  4, 13, 19, 18, 19, 19,  4, 18, 13, 13, 19, 16, 19,  4, 15, 19, 16, 22, 14, 13, 13,  0,  0,  0,  0,  0,  0,  0,  0,  0,  0,  0,  0,  0,  0,  0,  0,  0,  0,  0,  0,  0,  0,  0,  0,  0,  0,  0,  0,  0,  0,  0,  0,  0,  0,  0,  0,  0,  0,  0,  0,
        | 16, 22,  4, 13,  4, 19,  4, 18, 14, 17, 15, 18, 17, 22, 17, 22,  4, 22, 19,  4, 13, 19, 18, 19, 19,  4, 18, 13, 13, 19, 16, 19,  4, 15, 19, 16, 22, 14, 13, 13,  0,  0,  0,  0,  0,  0,  0,  0,  0,  0,  0,  0,  0,  0,  0,  0,  0,  0,  0,  0,  0,  0,  0,  0,  0,  0,  0,  0,  0,  0,  0,  0,  0,  0,  0,  0,  0,  0,  0,  0,
        | 16, 22,  4, 13,  4, 19,  4, 18, 14, 17, 15, 18, 17, 22, 17, 22,  4, 22, 19,  4, 13, 19, 18, 19, 19,  4, 18, 13, 13, 19, 16, 19,  4, 15, 19, 16, 22, 14, 13, 13,  0,  0,  0,  0,  0,  0,  0,  0,  0,  0,  0,  0,  0,  0,  0,  0,  0,  0,  0,  0,  0,  0,  0,  0,  0,  0,  0,  0,  0,  0,  0,  0,  0,  0,  0,  0,  0,  0,  0,  0,
        | 16, 22,  4, 13,  4, 19,  4, 18, 14, 17, 15, 18, 17, 22, 17, 22,  4, 22, 19,  4, 13, 19, 18, 19, 19,  4, 18, 13, 13, 19, 16, 19,  4, 15, 19, 16, 22, 14, 13, 13,  0,  0,  0,  0,  0,  0,  0,  0,  0,  0,  0,  0,  0,  0,  0,  0,  0,  0,  0,  0,  0,  0,  0,  0,  0,  0,  0,  0,  0,  0,  0,  0,  0,  0,  0,  0,  0,  0,  0,  0,
        | 16, 22,  4, 13,  4, 19,  4, 18, 14, 17, 15, 18, 17, 22, 17, 22,  4, 22, 19,  4, 13, 19, 18, 19, 19,  4, 18, 13, 13, 19, 16, 19,  4, 15, 19, 16, 22, 14, 13, 13,  0,  0,  0,  0,  0,  0,  0,  0,  0,  0,  0,  0,  0,  0,  0,  0,  0,  0,  0,  0,  0,  0,  0,  0,  0,  0,  0,  0,  0,  0,  0,  0,  0,  0,  0,  0,  0,  0,  0,  0,
        | 16, 22,  4, 13,  4, 19,  4, 18, 14, 17, 15, 18, 17, 22, 17, 22,  4, 22, 19,  4, 13, 19, 18, 19, 19,  4, 18, 13, 13, 19, 16, 19,  4, 15, 19, 16, 22, 14, 13, 13,  0,  0,  0,  0,  0,  0,  0,  0,  0,  0,  0,  0,  0,  0,  0,  0,  0,  0,  0,  0,  0,  0,  0,  0,  0,  0,  0,  0,  0,  0,  0,  0,  0,  0,  0,  0,  0,  0,  0,  0,
        | 16, 22,  4, 13,  4, 19,  4, 18, 14, 17, 15, 18, 17, 22, 17, 22,  4, 22, 19,  4, 13, 19, 18, 19, 19,  4, 18, 13, 13, 19, 16, 19,  4, 15, 19, 16, 22, 14, 13, 13,  0,  0,  0,  0,  0,  0,  0,  0,  0,  0,  0,  0,  0,  0,  0,  0,  0,  0,  0,  0,  0,  0,  0,  0,  0,  0,  0,  0,  0,  0,  0,  0,  0,  0,  0,  0,  0,  0,  0,  0,
        | 16, 22,  4, 13,  4, 19,  4, 18, 14, 17, 15, 18, 17, 22, 17, 22,  4, 22, 19,  4, 13, 19, 18, 19, 19,  4, 18, 13, 13, 19, 16, 19,  4, 15, 19, 16, 22, 14, 13, 13,  0,  0,  0,  0,  0,  0,  0,  0,  0,  0,  0,  0,  0,  0,  0,  0,  0,  0,  0,  0,  0,  0,  0,  0,  0,  0,  0,  0,  0,  0,  0,  0,  0,  0,  0,  0,  0,  0,  0,  0,
        | 16, 22,  4, 13,  4, 19,  4, 18, 14, 17, 15, 18, 17, 22, 17, 22,  4, 22, 19,  4, 13, 19, 18, 19, 19,  4, 18, 13, 13, 19, 16, 19,  4, 15, 19, 16, 22, 14, 13, 13,  0,  0,  0,  0,  0,  0,  0,  0,  0,  0,  0,  0,  0,  0,  0,  0,  0,  0,  0,  0,  0,  0,  0,  0,  0,  0,  0,  0,  0,  0,  0,  0,  0,  0,  0,  0,  0,  0,  0,  0,
        | 16, 22,  4, 13,  4, 19,  4, 18, 14, 17, 15, 18, 17, 22, 17, 22,  4, 22, 19,  4, 13, 19, 18, 19, 19,  4, 18, 13, 13, 19, 16, 19,  4, 15, 19, 16, 22, 14, 13, 13,  0,  0,  0,  0,  0,  0,  0,  0,  0,  0,  0,  0,  0,  0,  0,  0,  0,  0,  0,  0,  0,  0,  0,  0,  0,  0,  0,  0,  0,  0,  0,  0,  0,  0,  0,  0,  0,  0,  0,  0,
        | 16, 22,  4, 13,  4, 19,  4, 18, 14, 17, 15, 18, 17, 22, 17, 22,  4, 22, 19,  4, 13, 19, 18, 19, 19,  4, 18, 13, 13, 19, 16, 19,  4, 15, 19, 16, 22, 14, 13, 13,  0,  0,  0,  0,  0,  0,  0,  0,  0,  0,  0,  0,  0,  0,  0,  0,  0,  0,  0,  0,  0,  0,  0,  0,  0,  0,  0,  0,  0,  0,  0,  0,  0,  0,  0,  0,  0,  0,  0,  0,
        | 16, 22,  4, 13,  4, 19,  4, 18, 14, 17, 15, 18, 17, 22, 17, 22,  4, 22, 19,  4, 13, 19, 18, 19, 19,  4, 18, 13, 13, 19, 16, 19,  4, 15, 19, 16, 22, 14, 13, 13,  0,  0,  0,  0,  0,  0,  0,  0,  0,  0,  0,  0,  0,  0,  0,  0,  0,  0,  0,  0,  0,  0,  0,  0,  0,  0,  0,  0,  0,  0,  0,  0,  0,  0,  0,  0,  0,  0,  0,  0,
        | 16, 22,  4, 13,  4, 19,  4, 18, 14, 17, 15, 18, 17, 22, 17, 22,  4, 22, 19,  4, 13, 19, 18, 19, 19,  4, 18, 13, 13, 19, 16, 19,  4, 15, 19, 16, 22, 14, 13, 13,  0,  0,  0,  0,  0,  0,  0,  0,  0,  0,  0,  0,  0,  0,  0,  0,  0,  0,  0,  0,  0,  0,  0,  0,  0,  0,  0,  0,  0,  0,  0,  0,  0,  0,  0,  0,  0,  0,  0,  0,
        | 16, 22,  4, 13,  4, 19,  4, 18, 14, 17, 15, 18, 17, 22, 17, 22,  4, 22, 19,  4, 13, 19, 18, 19, 19,  4, 18, 13, 13, 19, 16, 19,  4, 15, 19, 16, 22, 14, 13, 13,  0,  0,  0,  0,  0,  0,  0,  0,  0,  0,  0,  0,  0,  0,  0,  0,  0,  0,  0,  0,  0,  0,  0,  0,  0,  0,  0,  0,  0,  0,  0,  0,  0,  0,  0,  0,  0,  0,  0,  0,
        | 16, 22,  4, 13,  4, 19,  4, 18, 14, 17, 15, 18, 17, 22, 17, 22,  4, 22, 19,  4, 13, 19, 18, 19, 19,  4, 18, 13, 13, 19, 16, 19,  4, 15, 19, 16, 22, 14, 13, 13,  0,  0,  0,  0,  0,  0,  0,  0,  0,  0,  0,  0,  0,  0,  0,  0,  0,  0,  0,  0,  0,  0,  0,  0,  0,  0,  0,  0,  0,  0,  0,  0,  0,  0,  0,  0,  0,  0,  0,  0,
        | 16, 22,  4, 13,  4, 19,  4, 18, 14, 17, 15, 18, 17, 22, 17, 22,  4, 22, 19,  4, 13, 19, 18, 19, 19,  4, 18, 13, 13, 19, 16, 19,  4, 15, 19, 16, 22, 14, 13, 13,  0,  0,  0,  0,  0,  0,  0,  0,  0,  0,  0,  0,  0,  0,  0,  0,  0,  0,  0,  0,  0,  0,  0,  0,  0,  0,  0,  0,  0,  0,  0,  0,  0,  0,  0,  0,  0,  0,  0,  0,
        | 16, 22,  4, 13,  4, 19,  4, 18, 14, 17, 15, 18, 17, 22, 17, 22,  4, 22, 19,  4, 13, 19, 18, 19, 19,  4, 18, 13, 13, 19, 16, 19,  4, 15, 19, 16, 22, 14, 13, 13,  0,  0,  0,  0,  0,  0,  0,  0,  0,  0,  0,  0,  0,  0,  0,  0,  0,  0,  0,  0,  0,  0,  0,  0,  0,  0,  0,  0,  0,  0,  0,  0,  0,  0,  0,  0,  0,  0,  0,  0,
        | 16, 22,  4, 13,  4, 19,  4, 18, 14, 17, 15, 18, 17, 22, 17, 22,  4, 22, 19,  4, 13, 19, 18, 19, 19,  4, 18, 13, 13, 19, 16, 19,  4, 15, 19, 16, 22, 14, 13, 13,  0,  0,  0,  0,  0,  0,  0,  0,  0,  0,  0,  0,  0,  0,  0,  0,  0,  0,  0,  0,  0,  0,  0,  0,  0,  0,  0,  0,  0,  0,  0,  0,  0,  0,  0,  0,  0,  0,  0,  0,
        | 16, 22,  4, 13,  4, 19,  4, 18, 14, 17, 15, 18, 17, 22, 17, 22,  4, 22, 19,  4, 13, 19, 18, 19, 19,  4, 18, 13, 13, 19, 16, 19,  4, 15, 19, 16, 22, 14, 13, 13,  0,  0,  0,  0,  0,  0,  0,  0,  0,  0,  0,  0,  0,  0,  0,  0,  0,  0,  0,  0,  0,  0,  0,  0,  0,  0,  0,  0,  0,  0,  0,  0,  0,  0,  0,  0,  0,  0,  0,  0,
        | 16, 22,  4, 13,  4, 19,  4, 18, 14, 17, 15, 18, 17, 22, 17, 22,  4, 22, 19,  4, 13, 19, 18, 19, 19,  4, 18, 13, 13, 19, 16, 19,  4, 15, 19, 16, 22, 14, 13, 13,  0,  0,  0,  0,  0,  0,  0,  0,  0,  0,  0,  0,  0,  0,  0,  0,  0,  0,  0,  0,  0,  0,  0,  0,  0,  0,  0,  0,  0,  0,  0,  0,  0,  0,  0,  0,  0,  0,  0,  0,
        | 16, 22,  4, 13,  4, 19,  4, 18, 14, 17, 15, 18, 17, 22, 17, 22,  4, 22, 19,  4, 13, 19, 18, 19, 19,  4, 18, 13, 13, 19, 16, 19,  4, 15, 19, 16, 22, 14, 13, 13,  0,  0,  0,  0,  0,  0,  0,  0,  0,  0,  0,  0,  0,  0,  0,  0,  0,  0,  0,  0,  0,  0,  0,  0,  0,  0,  0,  0,  0,  0,  0,  0,  0,  0,  0,  0,  0,  0,  0,  0,
        | 16, 22,  4, 13,  4, 19,  4, 18, 14, 17, 15, 18, 17, 22, 17, 22,  4, 22, 19,  4, 13, 19, 18, 19, 19,  4, 18, 13, 13, 19, 16, 19,  4, 15, 19, 16, 22, 14, 13, 13,  0,  0,  0,  0,  0,  0,  0,  0,  0,  0,  0,  0,  0,  0,  0,  0,  0,  0,  0,  0,  0,  0,  0,  0,  0,  0,  0,  0,  0,  0,  0,  0,  0,  0,  0,  0,  0,  0,  0,  0,
        | 16, 22,  4, 13,  4, 19,  4, 18, 14, 17, 15, 18, 17, 22, 17, 22,  4, 22, 19,  4, 13, 19, 18, 19, 19,  4, 18, 13, 13, 19, 16, 19,  4, 15, 19, 16, 22, 14, 13, 13,  0,  0,  0,  0,  0,  0,  0,  0,  0,  0,  0,  0,  0,  0,  0,  0,  0,  0,  0,  0,  0,  0,  0,  0,  0,  0,  0,  0,  0,  0,  0,  0,  0,  0,  0,  0,  0,  0,  0,  0,
        | 16, 22,  4, 13,  4, 19,  4, 18, 14, 17, 15, 18, 17, 22, 17, 22,  4, 22, 19,  4, 13, 19, 18, 19, 19,  4, 18, 13, 13, 19, 16, 19,  4, 15, 19, 16, 22, 14, 13, 13,  0,  0,  0,  0,  0,  0,  0,  0,  0,  0,  0,  0,  0,  0,  0,  0,  0,  0,  0,  0,  0,  0,  0,  0,  0,  0,  0,  0,  0,  0,  0,  0,  0,  0,  0,  0,  0,  0,  0,  0,
        | 16, 22,  4, 13,  4, 19,  4, 18, 14, 17, 15, 18, 17, 22, 17, 22,  4, 22, 19,  4, 13, 19, 18, 19, 19,  4, 18, 13, 13, 19, 16, 19,  4, 15, 19, 16, 22, 14, 13, 13,  0,  0,  0,  0,  0,  0,  0,  0,  0,  0,  0,  0,  0,  0,  0,  0,  0,  0,  0,  0,  0,  0,  0,  0,  0,  0,  0,  0,  0,  0,  0,  0,  0,  0,  0,  0,  0,  0,  0,  0,
        | 16, 22,  4, 13,  4, 19,  4, 18, 14, 17, 15, 18, 17, 22, 17, 22,  4, 22, 19,  4, 13, 19, 18, 19, 19,  4, 18, 13, 13, 19, 16, 19,  4, 15, 19, 16, 22, 14, 13, 13,  0,  0,  0,  0,  0,  0,  0,  0,  0,  0,  0,  0,  0,  0,  0,  0,  0,  0,  0,  0,  0,  0,  0,  0,  0,  0,  0,  0,  0,  0,  0,  0,  0,  0,  0,  0,  0,  0,  0,  0,
        | 16, 22,  4, 13,  4, 19,  4, 18, 14, 17, 15, 18, 17, 22, 17, 22,  4, 22, 19,  4, 13, 19, 18, 19, 19,  4, 18, 13, 13, 19, 16, 19,  4, 15, 19, 16, 22, 14, 13, 13,  0,  0,  0,  0,  0,  0,  0,  0,  0,  0,  0,  0,  0,  0,  0,  0,  0,  0,  0,  0,  0,  0,  0,  0,  0,  0,  0,  0,  0,  0,  0,  0,  0,  0,  0,  0,  0,  0,  0,  0,
        | 16, 22,  4, 13,  4, 19,  4, 18, 14, 17, 15, 18, 17, 22, 17, 22,  4, 22, 19,  4, 13, 19, 18, 19, 19,  4, 18, 13, 13, 19, 16, 19,  4, 15, 19, 16, 22, 14, 13, 13,  0,  0,  0,  0,  0,  0,  0,  0,  0,  0,  0,  0,  0,  0,  0,  0,  0,  0,  0,  0,  0,  0,  0,  0,  0,  0,  0,  0,  0,  0,  0,  0,  0,  0,  0,  0,  0,  0,  0,  0|];
l =     [ 11,  9, 10,  7, 10,  8, 10,  2,  4,  3,  6,  2,  3,  9,  3,  9, 10,  9,  5, 10,  1,  5,  2,  5,  5, 10,  2,  1,  1,  8, 11,  5, 10,  6,  5, 11,  9,  4,  7,  1];
a =     [ 16, 27, 28, 13, 21, 44, 37, 18, 16, 17, 15, 18, 17, 25, 17, 22, 19, 22, 19, 22, 48, 54, 55, 51, 59, 74, 61, 54, 45, 46, 58, 54, 50, 52, 61, 63, 55, 48, 58, 46];
b =     [ 31, 54, 49, 44, 45, 75, 73, 48, 54, 46, 33, 46, 47, 63, 43, 43, 47, 39, 46, 56,116,102,109, 96,107,135,106, 94,111,103, 99,111,101,112,101,118, 95,115,107, 88];
s =     [ 14, 19, 13, 12, 19, 10, 10, 16, 18, 17, 14, 10, 14, 16, 10, 11, 13, 15, 13, 12, 14, 19, 13, 12, 19, 10, 10, 16, 18, 17, 14, 10, 14, 16, 10, 11, 13, 15, 13, 12];
q =     [  2,  2,  1,  3,  4,  4,  3,  3,  4,  1,  3,  2,  1,  1,  2,  2,  4,  2,  3,  3, -2, -2, -1, -3, -4, -4, -3, -3, -4, -1, -3, -2, -1, -1, -2, -2, -4, -2, -3, -3];
